# avogadro generated ORCA input file 
# Basic Mode
# 
! B3LYP 6-31G(d) OPT FREQ 

* xyz 0 1
   F        2.03360        0.95850       -1.19810
   F        1.40780        1.54460        0.81840
   F        3.14700       -0.57680        0.75040
   F        1.78880       -1.67110       -0.55230
   F       -2.75120        1.05380       -0.44060
   F       -3.13920       -0.46580        1.07550
   F       -2.38540       -1.04850       -0.89120
   O       -0.05490        0.42730       -0.50780
   C        1.30530        0.57550       -0.12160
   C       -0.88930        0.03820        0.57430
   C        1.84110       -0.72430        0.41630
   C       -2.30350       -0.11120        0.07660
   H       -0.85070        0.79020        1.36930
   H       -0.60420       -0.93450        0.98000
   H        1.34190       -1.10100        1.30910
*

