# avogadro generated ORCA input file 
# Basic Mode
# 
! B3LYP 6-31G(d) OPT FREQ 
% FREQ TEMP 305, 320, 340 END

* xyz 0 1
   F        1.57550       -1.24070        1.22680
   F        2.24660       -1.31560       -0.85780
   F        1.24280        1.48160        1.02660
   F        1.89540        1.41730       -1.04930
   F       -2.21040        0.58860       -1.24560
   F       -2.97990        0.67620        0.79360
   F       -2.55970       -1.25630       -0.13610
   O        0.13720       -0.61470       -0.40400
   C        1.49250       -0.61950        0.02550
   C       -0.71760        0.07520        0.49690
   C        2.00800        0.78950        0.14680
   C       -2.13040        0.01840       -0.02340
   H       -0.53430        1.14710        0.50530
   H       -0.65750       -0.34600        1.50500
   H        3.05020        0.82730        0.47350
*

