# avogadro generated ORCA input file 
# Basic Mode
# 
! B3LYP aug-cc-pVTZ OPT FREQ 
% FREQ TEMP 305, 320, 340 END

* xyz 0 1
   F        1.28530       -1.62240        0.56030
   F        1.38880       -0.59790       -1.37380
   F        2.29800        1.67070       -0.14090
   F        3.53230       -0.08800        0.20960
   F       -2.56250        0.28010        1.34490
   F       -3.46870       -0.64150       -0.41230
   F       -2.46550        1.29230       -0.58450
   O       -0.03940        0.17810        0.20870
   C        1.23030       -0.41010       -0.04230
   C       -1.11330       -0.61630       -0.27520
   C        2.32920        0.47050        0.48930
   C       -2.41470        0.08470        0.01630
   H       -1.10420       -1.59410        0.21820
   H       -1.01120       -0.76410       -1.35560
   H        2.25350        0.63630        1.56730
*

