# avogadro generated ORCA input file 
# Basic Mode
# 
! BP RI SP def2-SVP def2-SVP/J 

* xyz 0 1
   C       -2.87203        1.21046        0.23369
   F       -3.85940        1.57630       -0.61758
   F       -3.21375        1.65190        1.46288
   F       -2.84330       -0.13980        0.26343
   C       -1.53723        1.78451       -0.22724
   O       -0.50013        1.57705        0.73764
   H       -1.65571        2.86254       -0.38397
   H       -1.26132        1.31673       -1.17906
   C        0.79018        1.92912        0.24706
   F        0.65733        2.79426       -0.79528
   F        1.40692        2.63301        1.23236
   C        1.64804        0.72839       -0.16464
   H        2.63253        1.04651       -0.51770
   F        1.81940       -0.13886        0.86793
   F        1.04163        0.02288       -1.15950
*

