# avogadro generated ORCA input file 
# Basic Mode
# 
! BP RI OPT def2-SVP def2-SVP/J 

* xyz 0 1
   C       -2.07321        0.81607       -0.08813
   F       -1.81331        1.90900       -0.83615
   F       -3.29339        0.98833        0.47347
   F       -2.15137       -0.25298       -0.90746
   C       -1.02235        0.62017        1.00174
   H       -1.01049        1.51363        1.63522
   H       -1.30641       -0.23833        1.61967
   O        0.27561        0.36956        0.45524
   C        1.34093        0.63414        1.36454
   F        2.48819        0.51428        0.64873
   C        1.38913       -0.25395        2.61742
   F        1.24529        1.94353        1.71865
   F        1.46126       -1.57102        2.29072
   F        2.48341        0.01965        3.37579
   H        0.50479       -0.10965        3.24371
*

