# avogadro generated ORCA input file 
# Basic Mode
# 
! BP RI SP def2-SVP def2-SVP/J 

* xyz 0 1
   O       -0.31129       -0.60915       -1.31147
   C       -1.61667       -0.16061       -0.92357
   C       -1.58265        0.45830        0.46832
   F       -1.28536       -0.46081        1.41254
   F       -2.78320        0.99527        0.78281
   F       -0.66329        1.44642        0.54271
   H       -2.29321       -1.02210       -0.93115
   H       -2.01324        0.58462       -1.62138
   C       -0.10010       -0.50721       -2.71597
   F       -0.99439       -1.33288       -3.31556
   F       -0.39950        0.75865       -3.10101
   C        1.33424       -0.87704       -3.10275
   F        2.22912       -0.03572       -2.51506
   F        1.52747       -0.76194       -4.44382
   H        1.58000       -1.89924       -2.80229
*

